*HEADING
Stage-A S4 shell-general-section matrix smoke test
*NODE
1, 0., 0., 0.
2, 1., 0., 0.
3, 1., 1., 0.
4, 0., 1., 0.
*ELEMENT, TYPE=S4, ELSET=PLATE
1, 1, 2, 3, 4
*NSET, NSET=FIXED
1, 4
*SHELL GENERAL SECTION, ELSET=PLATE, DENSITY=1.
1000000., 250000., 1000000., 0., 0., 375000., 0., 0.
0., 100., 0., 0., 0., 25., 100., 0.
0., 0., 0., 0., 37.5
*TRANSVERSE SHEAR STIFFNESS
500000., 500000., 0.
*BOUNDARY
FIXED, 1, 6
*STEP
*MATRIX GENERATE, STIFFNESS, MASS
*MATRIX OUTPUT, STIFFNESS, MASS, FORMAT=MATRIX INPUT
*END STEP
*STEP
*FREQUENCY, EIGENSOLVER=LANCZOS
10,
*END STEP
