*HEADING
Minimal free-free Stage-A bare plate for matrix decomposition verification
*NODE
1, 0.0000000000000000, 0.0000000000000000, 0.
2, 0.3333333333333333, 0.0000000000000000, 0.
3, 0.6666666666666667, 0.0000000000000000, 0.
4, 1.0000000000000000, 0.0000000000000000, 0.
5, 0.0000000000000000, 0.3333333333333333, 0.
6, 0.3333333333333333, 0.3333333333333333, 0.
7, 0.6666666666666667, 0.3333333333333333, 0.
8, 1.0000000000000000, 0.3333333333333333, 0.
9, 0.0000000000000000, 0.6666666666666667, 0.
10, 0.3333333333333333, 0.6666666666666667, 0.
11, 0.6666666666666667, 0.6666666666666667, 0.
12, 1.0000000000000000, 0.6666666666666667, 0.
13, 0.0000000000000000, 1.0000000000000000, 0.
14, 0.3333333333333333, 1.0000000000000000, 0.
15, 0.6666666666666667, 1.0000000000000000, 0.
16, 1.0000000000000000, 1.0000000000000000, 0.
*ELEMENT, TYPE=S4, ELSET=PLATE
1, 1, 2, 6, 5
2, 2, 3, 7, 6
3, 3, 4, 8, 7
4, 5, 6, 10, 9
5, 6, 7, 11, 10
6, 7, 8, 12, 11
7, 9, 10, 14, 13
8, 10, 11, 15, 14
9, 11, 12, 16, 15
*ELEMENT, TYPE=MASS, ELSET=CORNER_MASS
1001, 1
1002, 4
1003, 13
1004, 16
*ELEMENT, TYPE=MASS, ELSET=EDGE_MASS
1011, 2
1012, 3
1013, 5
1014, 8
1015, 9
1016, 12
1017, 14
1018, 15
*ELEMENT, TYPE=MASS, ELSET=INTERIOR_MASS
1021, 6
1022, 7
1023, 10
1024, 11
*ELEMENT, TYPE=ROTARYI, ELSET=CORNER_ROTARY
2001, 1
2002, 4
2003, 13
2004, 16
*ELEMENT, TYPE=ROTARYI, ELSET=EDGE_ROTARY
2011, 2
2012, 3
2013, 5
2014, 8
2015, 9
2016, 12
2017, 14
2018, 15
*ELEMENT, TYPE=ROTARYI, ELSET=INTERIOR_ROTARY
2021, 6
2022, 7
2023, 10
2024, 11
*MASS, ELSET=CORNER_MASS
0.02777777777777778
*MASS, ELSET=EDGE_MASS
0.05555555555555556
*MASS, ELSET=INTERIOR_MASS
0.1111111111111111
*ROTARY INERTIA, ELSET=CORNER_ROTARY
2.314814814814815e-7, 2.314814814814815e-7, 2.314814814814815e-7
*ROTARY INERTIA, ELSET=EDGE_ROTARY
4.629629629629630e-7, 4.629629629629630e-7, 4.629629629629630e-7
*ROTARY INERTIA, ELSET=INTERIOR_ROTARY
9.259259259259259e-7, 9.259259259259259e-7, 9.259259259259259e-7
** <STAGE_A_SHELL_GENERAL_SECTION>
** <STAGE_A_ANALYSIS_STEPS>
